100
128
38
41
15
56
37
53
30
55
42
58
39
24
47
32
33
11
42
56
22
46
27
56
12
10
24
10
55
30
41
8
30
10
51
1
1
24
32
43
61
17
58
34
37
57
26
12
49
3
47
41
39
28
28
60
22
52
54
28
53
14
11
61
46
52
32
22
46
53
37
40
49
35
38
38
25
51
31
26
30
47
29
31
40
33
53
58
64
12
48
30
38
37
31
40
6
44
49
29
46
27